(declare-fun bvlambda_17_ () (_ BitVec 2))
(declare-fun bvlambda_18_ ()Bool         )
(declare-fun bvlambda_19_ ()Bool         )
(declare-fun bvlambda_20_ () (_ BitVec 2))
(declare-fun bvlambda_25_ ()Bool         )
(declare-fun bvlambda_26_ ()Bool         )
(declare-fun a75 () (Array (_ BitVec 1) (_ BitVec 6)))
(assert
(let (($e4 (_ bv3032 13)))
(let (($e5 (_ bv0 5)))
(let (($e6 false    ))
(let (($e7 (_ bv0 11)))
(let (($e199                $e6               ))
(let (($e214        a75                           ))
(let (($e247 (concat bvlambda_17_ bvlambda_18_)))
(let (($e248 (concat $e247 bvlambda_19_)))
(let (($e249 (concat $e248 bvlambda_20_)))
(let (($e253 false                              ))
(let (($e254 (store $e214 $e253 $e249)))
(let (($e270 (concat $e5 true         )))
(let (($e271                    $e270       ))
(let (($e272 (concat $e7 bvlambda_25_)))
(let (($e273 (concat $e272 bvlambda_26_)))
(let (($e274      (bvult $e273        $e4 )         ))
(let (($e275        $e254           ))
(let (($e276 (select $e275 (bvnot $e274))))
                  (= $e276 $e271)
                                                                                                                                                                                                                                                                                                                                                                                                                                                                                                                                                                                                                                                                                                                                                                                                                                                                                                                                                                                                                                                                              )))))))               ))   )))                                )              )                                                                                                                                                    ))))   )
